 $contrl units=angs runtyp=energy coord=unique maxit=1 $end
 $guess guess=moread $end
 $system timlim=99999   mwords=200 $end
 $scf soscf=.f. diis=.t. CONV=1.0d-06  $end
 $basis gbasis=n31 ngauss=6 ndfunc=1 $end
 $data
 Water H2O (GEOMETRY: MP2/cc-pVTZ)
 C1
O1 8.0  0.0000  0.0000  0.1187
H2 1.0  0.0000  0.7532 -0.4749
H3 1.0  0.0000     -0.7532 -0.4749
 $end

--- CLOSED SHELL ORBITALS --- GENERATED AT Thu Aug 20 14:04:18 2020
 Water H2O (GEOMETRY: MP2/cc-pVTZ)                                              
E(RHF)=        0.0000000000, E(NUC)=    9.1801505578,    1 ITERS
 $VEC   
 1  1 9.94903997E-01 2.02295351E-02 0.00000000E+00 0.00000000E+00-2.47322191E-03
 1  2 3.17441794E-03 0.00000000E+00 0.00000000E+00 1.27512865E-03-3.30292260E-03
 1  3-3.69957125E-03-3.44325365E-03 0.00000000E+00 0.00000000E+00 0.00000000E+00
 1  4 3.67830090E-04 1.30184706E-04 3.67830090E-04 1.30184706E-04
 2  1-1.99079825E-01 4.31175253E-01 0.00000000E+00 0.00000000E+00-1.02164266E-01
 2  2 4.08546656E-01 0.00000000E+00 0.00000000E+00-6.48345850E-02-1.11817249E-03
 2  3 2.46341834E-02 2.58953699E-02 0.00000000E+00 0.00000000E+00 0.00000000E+00
 2  4 1.52759500E-01 3.08824817E-02 1.52759500E-01 3.08824817E-02
 3  1 0.00000000E+00 0.00000000E+00 0.00000000E+00 4.91381161E-01 0.00000000E+00
 3  2 0.00000000E+00 0.00000000E+00 3.12306276E-01 0.00000000E+00 0.00000000E+00
 3  3 0.00000000E+00 0.00000000E+00 0.00000000E+00 0.00000000E+00-5.31096317E-02
 3  4 2.35606642E-01 1.16584049E-01-2.35606642E-01-1.16584049E-01
 4  1-7.89355476E-02 1.91208083E-01-0.00000000E+00-0.00000000E+00 5.79242522E-01
 4  2 2.79507990E-01-0.00000000E+00-0.00000000E+00 4.03787829E-01 1.92808667E-02
 4  3 1.59883410E-02-4.85002819E-02-0.00000000E+00-0.00000000E+00-0.00000000E+00
 4  4-1.16688939E-01-5.29670201E-02-1.16688939E-01-5.29670201E-02
 5  1 0.00000000E+00 0.00000000E+00 6.63697829E-01 0.00000000E+00 0.00000000E+00
 5  2 0.00000000E+00 4.84759929E-01 0.00000000E+00 0.00000000E+00 0.00000000E+00
 5  3 0.00000000E+00 0.00000000E+00 0.00000000E+00-4.24308694E-02 0.00000000E+00
 5  4 0.00000000E+00 0.00000000E+00 0.00000000E+00 0.00000000E+00
 6  1-1.12003197E-01 8.30849548E-02 0.00000000E+00 0.00000000E+00-2.24493192E-01
 6  2 1.43246405E+00 0.00000000E+00 0.00000000E+00-4.76360504E-01-6.95722612E-02
 6  3-5.98474788E-02-3.61402059E-02 0.00000000E+00 0.00000000E+00 0.00000000E+00
 6  4-6.29503415E-02-1.02932772E+00-6.29503415E-02-1.02932772E+00
 7  1 0.00000000E+00 0.00000000E+00 0.00000000E+00 3.37123261E-01 0.00000000E+00
 7  2 0.00000000E+00 0.00000000E+00 8.35839794E-01 0.00000000E+00 0.00000000E+00
 7  3 0.00000000E+00 0.00000000E+00 0.00000000E+00 0.00000000E+00-2.92950967E-02
 7  4-5.21525424E-02-1.39127852E+00 5.21525424E-02 1.39127852E+00
 8  1 0.00000000E+00 0.00000000E+00 0.00000000E+00 1.17200894E-01 0.00000000E+00
 8  2 0.00000000E+00 0.00000000E+00 6.24747315E-01 0.00000000E+00 0.00000000E+00
 8  3 0.00000000E+00 0.00000000E+00 0.00000000E+00 0.00000000E+00 1.92658804E-01
 8  4-8.41253112E-01 4.88724000E-01 8.41253112E-01-4.88724000E-01
 9  1 4.19227039E-02-5.76367132E-01 0.00000000E+00 0.00000000E+00 2.70816946E-01
 9  2 8.06579350E-01 0.00000000E+00 0.00000000E+00 1.87115293E-01-3.06827034E-01
 9  3 5.73425635E-02-1.66130903E-01 0.00000000E+00 0.00000000E+00 0.00000000E+00
 9  4 8.54404248E-01-6.02158915E-01 8.54404248E-01-6.02158915E-01
10  1 0.00000000E+00 0.00000000E+00-9.46284739E-01 0.00000000E+00 0.00000000E+00
10  2 0.00000000E+00 1.04851279E+00 0.00000000E+00 0.00000000E+00 0.00000000E+00
10  3 0.00000000E+00 0.00000000E+00 0.00000000E+00-1.93750842E-02 0.00000000E+00
10  4 0.00000000E+00 0.00000000E+00 0.00000000E+00 0.00000000E+00
11  1-3.00598297E-02-6.53657154E-01-0.00000000E+00-0.00000000E+00-8.35081248E-01
11  2 1.30408988E+00-0.00000000E+00-0.00000000E+00 8.56710075E-01-2.37909832E-01
11  3-2.74336010E-01-2.81732703E-01-0.00000000E+00-0.00000000E+00-0.00000000E+00
11  4-2.47917170E-02-4.00944209E-02-2.47917170E-02-4.00944209E-02
12  1 0.00000000E+00 0.00000000E+00 0.00000000E+00-1.03957176E+00 0.00000000E+00
12  2 0.00000000E+00 0.00000000E+00 1.53661455E+00 0.00000000E+00 0.00000000E+00
12  3 0.00000000E+00 0.00000000E+00 0.00000000E+00 0.00000000E+00-7.52908211E-03
12  4 8.50644593E-02-9.05460010E-01-8.50644593E-02 9.05460010E-01
13  1-8.43552968E-02-1.46104734E+00-0.00000000E+00-0.00000000E+00 4.55728886E-01
13  2 3.63820965E+00-0.00000000E+00-0.00000000E+00-1.13977906E+00-2.84274109E-01
13  3-6.60753217E-01-4.11714245E-01-0.00000000E+00-0.00000000E+00-0.00000000E+00
13  4-3.41262052E-01-7.85080843E-01-3.41262052E-01-7.85080843E-01
14  1 6.48128191E-03 7.13071353E-02-0.00000000E+00-0.00000000E+00 1.57740372E-03
14  2-2.09993954E-01-0.00000000E+00-0.00000000E+00 1.36034457E-01-3.71070997E-01
14  3-5.84775514E-01 1.00266776E+00-0.00000000E+00-0.00000000E+00-0.00000000E+00
14  4 7.61759553E-02 3.59926446E-02 7.61759553E-02 3.59926446E-02
15  1 0.00000000E+00 0.00000000E+00 0.00000000E+00 0.00000000E+00 0.00000000E+00
15  2 0.00000000E+00 0.00000000E+00 0.00000000E+00 0.00000000E+00 0.00000000E+00
15  3 0.00000000E+00 0.00000000E+00 1.00000000E+00 0.00000000E+00 0.00000000E+00
15  4 0.00000000E+00 0.00000000E+00 0.00000000E+00 0.00000000E+00
16  1 0.00000000E+00 0.00000000E+00 9.83763749E-03 0.00000000E+00 0.00000000E+00
16  2 0.00000000E+00 4.09283585E-02 0.00000000E+00 0.00000000E+00 0.00000000E+00
16  3 0.00000000E+00 0.00000000E+00 0.00000000E+00 9.98911521E-01 0.00000000E+00
16  4 0.00000000E+00 0.00000000E+00 0.00000000E+00 0.00000000E+00
17  1-5.85692477E-02-4.89327296E-01-0.00000000E+00-0.00000000E+00 4.87845189E-02
17  2 1.57619366E+00-0.00000000E+00-0.00000000E+00-7.48132058E-01-1.13758289E+00
17  3 7.41790894E-01 4.48673832E-02-0.00000000E+00-0.00000000E+00-0.00000000E+00
17  4-8.40562813E-01-1.43750491E-01-8.40562813E-01-1.43750491E-01
18  1 0.00000000E+00 0.00000000E+00 0.00000000E+00 2.62029411E-02 0.00000000E+00
18  2 0.00000000E+00 0.00000000E+00-8.50801879E-01 0.00000000E+00 0.00000000E+00
18  3 0.00000000E+00 0.00000000E+00 0.00000000E+00 0.00000000E+00 1.28358806E+00
18  4 9.43550300E-01-4.45579215E-02-9.43550300E-01 4.45579215E-02
19  1-4.66016245E-01 3.32616845E-01 0.00000000E+00 0.00000000E+00 1.23681128E-01
19  2 3.61770622E+00 0.00000000E+00 0.00000000E+00-3.30433666E-01-1.55731696E+00
19  3-1.52360704E+00-1.54284429E+00 0.00000000E+00 0.00000000E+00 0.00000000E+00
19  4 1.26686037E-01-5.45691415E-01 1.26686037E-01-5.45691415E-01
 $END   
