 $contrl units=angs runtyp=energy coord=unique maxit=1 $end
 $guess guess=moread $end
 $system timlim=99999   mwords=200 $end
 $scf soscf=.f. diis=.t. CONV=1.0d-06  $end
 $basis gbasis=n31 ngauss=6 ndfunc=1 $end
 $data
 Water H2O (GEOMETRY: MP2/cc-pVTZ)
 C1
O1 8.0  0.0000  0.0000  0.1187
H2 1.0  0.0000  0.7532 -0.4749
H3 1.0  0.0000     -0.7532 -0.4749
 $end
--- CLOSED SHELL ORBITALS --- GENERATED AT Thu Aug 20 14:38:34 2020
 Water H2O (GEOMETRY: MP2/cc-pVTZ)                                              
E(RHF)=        0.0000000000, E(NUC)=    9.1801505578,    1 ITERS
 $VEC   
 1  1 9.94620143E-01 2.12151646E-02-0.00000000E+00-0.00000000E+00-1.38911442E-03
 1  2 4.08590192E-03-0.00000000E+00-0.00000000E+00 5.04547081E-04-3.92376340E-03
 1  3-4.23650746E-03-4.07980741E-03-0.00000000E+00-0.00000000E+00-0.00000000E+00
 1  4 3.33952566E-04-1.86680778E-04 3.33952566E-04-1.86680778E-04
 2  1-2.09027270E-01 4.72325314E-01-0.00000000E+00-0.00000000E+00-9.28278423E-02
 2  2 4.38602283E-01-0.00000000E+00-0.00000000E+00-5.12442704E-02-1.21366616E-03
 2  3 2.60584403E-02 2.20314054E-02-0.00000000E+00-0.00000000E+00-0.00000000E+00
 2  4 1.32184964E-01 3.93604432E-03 1.32184964E-01 3.93604432E-03
 3  1 0.00000000E+00 0.00000000E+00 0.00000000E+00 5.04083200E-01 0.00000000E+00
 3  2 0.00000000E+00 0.00000000E+00 3.07585898E-01 0.00000000E+00 0.00000000E+00
 3  3 0.00000000E+00 0.00000000E+00 0.00000000E+00 0.00000000E+00-5.15240305E-02
 3  4 2.31194063E-01 1.15422962E-01-2.31194063E-01-1.15422962E-01
 4  1-7.33145516E-02 1.64963093E-01 0.00000000E+00 0.00000000E+00 5.58927067E-01
 4  2 3.18506934E-01 0.00000000E+00 0.00000000E+00 4.02591515E-01 1.21001358E-02
 4  3 1.33499746E-03-4.66894121E-02 0.00000000E+00 0.00000000E+00 0.00000000E+00
 4  4-1.39966038E-01-7.96839212E-02-1.39966038E-01-7.96839212E-02
 5  1 0.00000000E+00 0.00000000E+00 6.41974036E-01 0.00000000E+00 0.00000000E+00
 5  2 0.00000000E+00 5.08898802E-01 0.00000000E+00 0.00000000E+00 0.00000000E+00
 5  3 0.00000000E+00 0.00000000E+00 0.00000000E+00-3.46108973E-02 0.00000000E+00
 5  4 0.00000000E+00 0.00000000E+00 0.00000000E+00 0.00000000E+00
 6  1-1.01568716E-01 5.78683483E-02 0.00000000E+00 0.00000000E+00-2.15818062E-01
 6  2 1.41536697E+00 0.00000000E+00 0.00000000E+00-5.08613264E-01-7.16424838E-02
 6  3-5.66022467E-02-4.28648297E-02 0.00000000E+00 0.00000000E+00 0.00000000E+00
 6  4-5.55511059E-02-1.03949783E+00-5.55511059E-02-1.03949783E+00
 7  1 0.00000000E+00 0.00000000E+00 0.00000000E+00-3.30754065E-01 0.00000000E+00
 7  2 0.00000000E+00 0.00000000E+00-8.33123857E-01 0.00000000E+00 0.00000000E+00
 7  3 0.00000000E+00 0.00000000E+00 0.00000000E+00 0.00000000E+00 2.26731513E-02
 7  4 4.98218015E-02 1.39429885E+00-4.98218015E-02-1.39429885E+00
 8  1 0.00000000E+00 0.00000000E+00 0.00000000E+00 9.30851859E-02 0.00000000E+00
 8  2 0.00000000E+00 0.00000000E+00 6.52498446E-01 0.00000000E+00 0.00000000E+00
 8  3 0.00000000E+00 0.00000000E+00 0.00000000E+00 0.00000000E+00 1.96476794E-01
 8  4-8.37495733E-01 4.69783470E-01 8.37495733E-01-4.69783470E-01
 9  1-2.57905339E-04-9.39733523E-01 0.00000000E+00 0.00000000E+00-4.60239273E-01
 9  2 1.69278688E+00 0.00000000E+00 0.00000000E+00 7.21884398E-01-3.88362541E-01
 9  3-2.06327588E-01-3.25237417E-01 0.00000000E+00 0.00000000E+00 0.00000000E+00
 9  4 5.02235939E-01-4.52979853E-01 5.02235939E-01-4.52979853E-01
10  1-0.00000000E+00-0.00000000E+00-9.61168078E-01-0.00000000E+00-0.00000000E+00
10  2-0.00000000E+00 1.03731048E+00-0.00000000E+00-0.00000000E+00-0.00000000E+00
10  3-0.00000000E+00-0.00000000E+00-0.00000000E+00-1.43160915E-02-0.00000000E+00
10  4-0.00000000E+00-0.00000000E+00-0.00000000E+00-0.00000000E+00
11  1 4.91714677E-02 2.00407818E-02 0.00000000E+00 0.00000000E+00 7.38117369E-01
11  2-3.11213015E-01 0.00000000E+00 0.00000000E+00-3.38354456E-01-8.84360893E-02
11  3 2.27481762E-01 6.31155816E-02 0.00000000E+00 0.00000000E+00 0.00000000E+00
11  4 6.91922425E-01-3.98353998E-01 6.91922425E-01-3.98353998E-01
12  1-0.00000000E+00-0.00000000E+00-0.00000000E+00-1.03813960E+00-0.00000000E+00
12  2-0.00000000E+00-0.00000000E+00 1.52858139E+00-0.00000000E+00-0.00000000E+00
12  3-0.00000000E+00-0.00000000E+00-0.00000000E+00-0.00000000E+00-1.87769741E-02
12  4 9.99315879E-02-9.10988070E-01-9.99315879E-02 9.10988070E-01
13  1-8.62583305E-02-1.40860038E+00 0.00000000E+00 0.00000000E+00 5.02046150E-01
13  2 3.55594756E+00 0.00000000E+00 0.00000000E+00-1.18667502E+00-2.66241229E-01
13  3-6.46250349E-01-4.05206482E-01 0.00000000E+00 0.00000000E+00 0.00000000E+00
13  4-3.40440145E-01-7.72520585E-01-3.40440145E-01-7.72520585E-01
14  1 6.97634851E-03 7.59760597E-02-0.00000000E+00-0.00000000E+00-4.17750249E-03
14  2-2.21533442E-01-0.00000000E+00-0.00000000E+00 1.28625472E-01-3.49261393E-01
14  3-5.96992457E-01 1.00537019E+00-0.00000000E+00-0.00000000E+00-0.00000000E+00
14  4 7.53326811E-02 3.58343304E-02 7.53326811E-02 3.58343304E-02
15  1 0.00000000E+00 0.00000000E+00 0.00000000E+00 0.00000000E+00 0.00000000E+00
15  2 0.00000000E+00 0.00000000E+00 0.00000000E+00 0.00000000E+00 0.00000000E+00
15  3 0.00000000E+00 0.00000000E+00 1.00000000E+00 0.00000000E+00 0.00000000E+00
15  4 0.00000000E+00 0.00000000E+00 0.00000000E+00 0.00000000E+00
16  1-0.00000000E+00-0.00000000E+00 8.46506703E-03-0.00000000E+00-0.00000000E+00
16  2-0.00000000E+00 3.24864710E-02-0.00000000E+00-0.00000000E+00-0.00000000E+00
16  3-0.00000000E+00-0.00000000E+00-0.00000000E+00 9.99298321E-01-0.00000000E+00
16  4-0.00000000E+00-0.00000000E+00-0.00000000E+00-0.00000000E+00
17  1-5.76672979E-02-4.93005932E-01-0.00000000E+00-0.00000000E+00 5.02087670E-02
17  2 1.57540922E+00-0.00000000E+00-0.00000000E+00-7.50161206E-01-1.14078183E+00
17  3 7.33825556E-01 6.06612234E-02-0.00000000E+00-0.00000000E+00-0.00000000E+00
17  4-8.41310423E-01-1.43692083E-01-8.41310423E-01-1.43692083E-01
18  1 0.00000000E+00 0.00000000E+00 0.00000000E+00 1.85153366E-02 0.00000000E+00
18  2 0.00000000E+00 0.00000000E+00-8.48823272E-01 0.00000000E+00 0.00000000E+00
18  3 0.00000000E+00 0.00000000E+00 0.00000000E+00 0.00000000E+00 1.28309265E+00
18  4 9.46647757E-01-4.42112197E-02-9.46647757E-01 4.42112197E-02
19  1-4.65593452E-01 3.29370797E-01 0.00000000E+00 0.00000000E+00 1.16668442E-01
19  2 3.61466962E+00 0.00000000E+00 0.00000000E+00-3.21161411E-01-1.56064445E+00
19  3-1.52395360E+00-1.54130558E+00 0.00000000E+00 0.00000000E+00 0.00000000E+00
19  4 1.25972035E-01-5.42265093E-01 1.25972035E-01-5.42265093E-01
 $END   
